100
547 125 281 431 17 499 953 429 835 961 21 14 437 960 455 798 672 46 466 644 160 133 668 301 691 278 77 375 788 349 546 774 278 867 42 451 242 171 900 167 781 472 946 886 17 952 559 727 106 719 722 965 596 40 655 666 130 809 37 588 623 947 168 219 677 484 919 160 660 214 932 368 416 511 930 841 625 319 628 881 466 149 790 989 298 53 324 193 648 504 847 197 640 585 129 496 212 23 392 377 
645 227 383 529 116 597 1055 530 936 1061 122 115 536 1059 555 898 773 146 564 745 261 234 769 402 791 376 177 477 889 451 646 874 377 969 142 553 343 272 1000 266 879 573 1047 985 119 1051 661 827 205 818 824 1065 698 138 757 765 229 911 136 689 723 1046 268 318 777 586 1020 261 758 316 1031 470 514 613 1032 942 723 419 728 982 567 247 892 1091 399 153 424 295 748 602 949 297 742 686 231 597 314 121 493 475 
24285
